NAME : brazil58
TYPE : OP
DIMENSION : 58
COST_LIMIT : 11428
ROUTE_NODES : 38
ROUTE_SCORE : 2060
ROUTE_COST : 11382
NODE_SEQUENCE_SECTION
1
30
13
25
40
23
5
8
22
55
54
2
41
35
3
21
29
33
45
37
14
28
6
19
26
17
52
10
51
47
49
43
27
12
57
24
44
18
-1
DEPOT_SECTION
1
-1
EOF
